1	16,0	2	0,0	3	10,7	4	8,9	5	0,0	6	0,0	7	0,0	8	0,0	9	0,0	10	17,6
1	6,7	2	14,4	3	0,0	4	7,2	5	16,0	6	0,0	7	0,0	8	14,2	9	0,0	10	0,0
1	0,0	2	0,0	3	18,3	4	0,0	5	11,1	6	5,2	7	0,0	8	0,0	9	7,4	10	0,0
1	17,5	2	0,0	3	18,2	4	0,0	5	0,0	6	0,0	7	11,4	8	0,0	9	0,0	10	0,0
1	0,0	2	5,6	3	0,0	4	11,3	5	19,3	6	0,0	7	0,0	8	10,0	9	0,0	10	0,0
1	0,0	2	8,7	3	7,2	4	0,0	5	6,8	6	6,9	7	0,0	8	0,0	9	8,0	10	0,0
1	0,0	2	16,2	3	0,0	4	17,7	5	0,0	6	0,0	7	6,1	8	0,0	9	0,0	10	16,2
1	10,7	2	0,0	3	15,7	4	0,0	5	0,0	6	0,0	7	0,0	8	0,0	9	0,0	10	6,6
1	0,0	2	19,8	3	0,0	4	14,3	5	17,7	6	0,0	7	0,0	8	19,0	9	0,0	10	0,0
1	0,0	2	0,0	3	18,5	4	0,0	5	0,0	6	19,6	7	6,8	8	0,0	9	0,0	10	13,7
1	0,0	2	8,3	3	0,0	4	0,0	5	5,2	6	0,0	7	7,7	8	0,0	9	13,2	10	7,1
1	12,7	2	0,0	3	12,2	4	0,0	5	20,0	6	0,0	7	7,4	8	12,3	9	7,2	10	0,0
1	0,0	2	7,2	3	0,0	4	0,0	5	0,0	6	6,7	7	0,0	8	9,0	9	19,7	10	6,3
1	9,3	2	7,7	3	11,9	4	0,0	5	0,0	6	14,0	7	0,0	8	8,5	9	15,3	10	0,0
1	9,3	2	0,0	3	7,9	4	0,0	5	15,5	6	6,1	7	13,3	8	14,1	9	0,0	10	0,0
1	0,0	2	16,2	3	0,0	4	17,6	5	0,0	6	12,5	7	0,0	8	8,5	9	0,0	10	0,0
1	8,1	2	0,0	3	7,0	4	10,8	5	7,2	6	0,0	7	0,0	8	16,6	9	0,0	10	0,0
1	0,0	2	0,0	3	5,5	4	0,0	5	0,0	6	11,5	7	10,4	8	0,0	9	7,3	10	20,0
1	17,1	2	0,0	3	0,0	4	16,5	5	18,1	6	11,9	7	5,8	8	12,9	9	0,0	10	7,1
1	0,0	2	14,1	3	0,0	4	5,4	5	0,0	6	0,0	7	6,0	8	0,0	9	19,1	10	5,4
																			
1	3,8	2	3,4	3	3,1	4	4,7	5	3,4	6	4,1	7	4,8	8	3,4	9	3,6	10	3,1
